benchmarks_vrp/CMT2/tsp_classic/CMT2_1.vrp
NAME: CMT2_1
TYPE: CVRP
COMMENT: 835.26 - Cluster Nr.1
DIMENSION: 9
CAPACITY: 140
EDGE_WEIGHT_TYPE: EUC_2D
NODE_COORD_TYPE: TWOD_COORDS
NODE_COORD_SECTION: 
4 21 45
2 12 38
5 26 29
9 6 25
6 21 36
8 11 28
7 40 40
3 7 43
1 21 48
DEPOT_SECTION: 
7
-1
DEMAND_SECTION: 
4 11
9 26
5 27
6 19
2 5
8 6
1 17
7 0
3 27
EOF
