benchmarks_vrp/CMT2/tsp_classic/CMT2_1.tour
NAME: CMT2_1 solution
TYPE: TOUR
TOUR_SECTION:
7 1 4 3 2 9 8 6 5 -1
-1
EOF